9
0, 767, 575, 309, 301, 834, 76, 698, 193
767, 0, 1130, 1019, 715, 560, 839, 209, 640
575, 1130, 0, 320, 421, 867, 574, 967, 757
309, 1019, 320, 0, 349, 929, 280, 904, 502
301, 715, 421, 349, 0, 586, 356, 570, 415
834, 560, 867, 929, 586, 0, 906, 359, 837
76, 839, 574, 280, 356, 906, 0, 773, 237
698, 209, 967, 904, 570, 359, 773, 0, 620
193, 640, 757, 502, 415, 837, 237, 620, 0
